20 9 92 90 5 55 32 24 59 66 38 44 54 39 40 23 69 56 47 26 29 3 70 41 2 18 31 85 22 53 75 27 96 19 35 99 0 34 77 93 64 95 73 60 62 30 98 21 61 50 82 71 89 76 78 84 33 74 10 68 46 80 1 58 28 14 88 63 51 94 37 81 65 57 42 16 87 45 25 79 72 49 17 67 13 91 36 15 12 97 52 7 6 11 43 4 8 86 83 48